formal_verification/runs/model_eval_v7_100/case_082/run/model/design_smt2.smt2
; SMT-LIBv2 description generated by Yosys 0.64+40 (git sha1 90b906c4f, clang++ 18.1.8 -fPIC -O3)
; yosys-smt2-module vert_formal_wrap
(declare-sort |vert_formal_wrap_s| 0)
(declare-fun |vert_formal_wrap_is| (|vert_formal_wrap_s|) Bool)
; yosys-smt2-witness {"offset": 0, "path": ["$auto$async2sync.cc:107:execute$118"], "smtname": 0, "smtoffset": 0, "type": "reg", "width": 1}
(declare-fun |vert_formal_wrap#0| (|vert_formal_wrap_s|) (_ BitVec 1)) ; $auto$async2sync.cc:107:execute$118
; yosys-smt2-register $auto$async2sync.cc:107:execute$118 1
(define-fun |vert_formal_wrap_n $auto$async2sync.cc:107:execute$118| ((state |vert_formal_wrap_s|)) Bool (= ((_ extract 0 0) (|vert_formal_wrap#0| state)) #b1))
; yosys-smt2-anyseq vert_formal_wrap#1 1 $auto$setundef.cc:550:execute$165
; yosys-smt2-witness {"offset": 0, "path": ["\\_witness_", "\\anyseq_auto_setundef_cc_550_execute_165"], "smtname": 1, "smtoffset": 0, "type": "seq", "width": 1}
(declare-fun |vert_formal_wrap#1| (|vert_formal_wrap_s|) (_ BitVec 1)) ; \_witness_.anyseq_auto_setundef_cc_550_execute_165
; yosys-smt2-wire _witness_.anyseq_auto_setundef_cc_550_execute_165 1
(define-fun |vert_formal_wrap_n _witness_.anyseq_auto_setundef_cc_550_execute_165| ((state |vert_formal_wrap_s|)) Bool (= ((_ extract 0 0) (|vert_formal_wrap#1| state)) #b1))
; yosys-smt2-witness {"offset": 0, "path": ["$auto$async2sync.cc:116:execute$122"], "smtname": 2, "smtoffset": 0, "type": "reg", "width": 1}
(declare-fun |vert_formal_wrap#2| (|vert_formal_wrap_s|) (_ BitVec 1)) ; $auto$async2sync.cc:116:execute$122
; yosys-smt2-register $auto$async2sync.cc:116:execute$122 1
(define-fun |vert_formal_wrap_n $auto$async2sync.cc:116:execute$122| ((state |vert_formal_wrap_s|)) Bool (= ((_ extract 0 0) (|vert_formal_wrap#2| state)) #b1))
; yosys-smt2-anyseq vert_formal_wrap#3 1 $auto$setundef.cc:550:execute$163
; yosys-smt2-witness {"offset": 0, "path": ["\\_witness_", "\\anyseq_auto_setundef_cc_550_execute_163"], "smtname": 3, "smtoffset": 0, "type": "seq", "width": 1}
(declare-fun |vert_formal_wrap#3| (|vert_formal_wrap_s|) (_ BitVec 1)) ; \_witness_.anyseq_auto_setundef_cc_550_execute_163
; yosys-smt2-wire _witness_.anyseq_auto_setundef_cc_550_execute_163 1
(define-fun |vert_formal_wrap_n _witness_.anyseq_auto_setundef_cc_550_execute_163| ((state |vert_formal_wrap_s|)) Bool (= ((_ extract 0 0) (|vert_formal_wrap#3| state)) #b1))
; yosys-smt2-witness {"offset": 0, "path": ["\\_started"], "smtname": 4, "smtoffset": 0, "type": "reg", "width": 1}
(declare-fun |vert_formal_wrap#4| (|vert_formal_wrap_s|) (_ BitVec 1)) ; \_started
; yosys-smt2-register _started 1
; yosys-smt2-wire _started 1
(define-fun |vert_formal_wrap_n _started| ((state |vert_formal_wrap_s|)) Bool (= ((_ extract 0 0) (|vert_formal_wrap#4| state)) #b1))
; yosys-smt2-wire bx000x0 32
(define-fun |vert_formal_wrap_n bx000x0| ((state |vert_formal_wrap_s|)) (_ BitVec 32) #b00000000000000000000000000000000)
; yosys-smt2-wire clk_20 32
(define-fun |vert_formal_wrap_n clk_20| ((state |vert_formal_wrap_s|)) (_ BitVec 32) #b00000000000000000000000000000000)
; yosys-smt2-anyseq vert_formal_wrap#5 1 $auto$setundef.cc:350:execute$161
; yosys-smt2-witness {"offset": 0, "path": ["\\clk_enable_15"], "smtname": 5, "smtoffset": 0, "type": "seq", "width": 1}
(declare-fun |vert_formal_wrap#5| (|vert_formal_wrap_s|) (_ BitVec 1)) ; \clk_enable_15
; yosys-smt2-wire clk_enable_15 1
; yosys-smt2-clock clk_enable_15 negedge
(define-fun |vert_formal_wrap_n clk_enable_15| ((state |vert_formal_wrap_s|)) Bool (= ((_ extract 0 0) (|vert_formal_wrap#5| state)) #b1))
; yosys-smt2-wire core_8 32
(define-fun |vert_formal_wrap_n core_8| ((state |vert_formal_wrap_s|)) (_ BitVec 32) #b00000000000000000000000000000000)
; yosys-smt2-wire hw_10 32
(define-fun |vert_formal_wrap_n hw_10| ((state |vert_formal_wrap_s|)) (_ BitVec 32) #b00000000000000000000000000000000)
; yosys-smt2-wire hw_12 32
(define-fun |vert_formal_wrap_n hw_12| ((state |vert_formal_wrap_s|)) (_ BitVec 32) #b00000000000000000000000000000000)
; yosys-smt2-wire instruction_register_11 32
(define-fun |vert_formal_wrap_n instruction_register_11| ((state |vert_formal_wrap_s|)) (_ BitVec 32) #b00000000000000000000000000000000)
; yosys-smt2-wire reg_20 32
(define-fun |vert_formal_wrap_n reg_20| ((state |vert_formal_wrap_s|)) (_ BitVec 32) #b00000000000000000000000000000000)
; yosys-smt2-wire rst 1
(define-fun |vert_formal_wrap_n rst| ((state |vert_formal_wrap_s|)) Bool false)
; yosys-smt2-wire rst_1 32
(define-fun |vert_formal_wrap_n rst_1| ((state |vert_formal_wrap_s|)) (_ BitVec 32) #b00000000000000000000000000000000)
; yosys-smt2-wire rst_12 32
(define-fun |vert_formal_wrap_n rst_12| ((state |vert_formal_wrap_s|)) (_ BitVec 32) #b00000000000000000000000000000000)
; yosys-smt2-wire rx_11 32
(define-fun |vert_formal_wrap_n rx_11| ((state |vert_formal_wrap_s|)) (_ BitVec 32) #b00000000000000000000000000000000)
; yosys-smt2-wire rx_7 32
(define-fun |vert_formal_wrap_n rx_7| ((state |vert_formal_wrap_s|)) (_ BitVec 32) #b00000000000000000000000000000000)
; yosys-smt2-wire sig_10 32
(define-fun |vert_formal_wrap_n sig_10| ((state |vert_formal_wrap_s|)) (_ BitVec 32) #b00000000000000000000000000000000)
; yosys-smt2-wire sig_17 32
(define-fun |vert_formal_wrap_n sig_17| ((state |vert_formal_wrap_s|)) (_ BitVec 32) #b00000000000000000000000000000000)
; yosys-smt2-witness {"offset": 0, "path": ["\\sig_5"], "smtname": 6, "smtoffset": 0, "type": "reg", "width": 1}
(declare-fun |vert_formal_wrap#6| (|vert_formal_wrap_s|) (_ BitVec 1)) ; \sig_5 [0]
; yosys-smt2-register sig_5 32
; yosys-smt2-wire sig_5 32
(define-fun |vert_formal_wrap_n sig_5| ((state |vert_formal_wrap_s|)) (_ BitVec 32) (concat (|vert_formal_wrap#6| state) (concat (|vert_formal_wrap#6| state) (concat (|vert_formal_wrap#6| state) (concat (|vert_formal_wrap#6| state) (concat (|vert_formal_wrap#6| state) (concat (|vert_formal_wrap#6| state) (concat (|vert_formal_wrap#6| state) (concat (|vert_formal_wrap#6| state) (concat (|vert_formal_wrap#6| state) (concat (|vert_formal_wrap#6| state) (concat (|vert_formal_wrap#6| state) (concat (|vert_formal_wrap#6| state) (concat (|vert_formal_wrap#6| state) (concat (|vert_formal_wrap#6| state) (concat (|vert_formal_wrap#6| state) (concat (|vert_formal_wrap#6| state) (concat (|vert_formal_wrap#6| state) (concat (|vert_formal_wrap#6| state) (concat (|vert_formal_wrap#6| state) (concat (|vert_formal_wrap#6| state) (concat (|vert_formal_wrap#6| state) (concat (|vert_formal_wrap#6| state) (concat (|vert_formal_wrap#6| state) (concat (|vert_formal_wrap#6| state) (concat (|vert_formal_wrap#6| state) (concat (|vert_formal_wrap#6| state) (concat (|vert_formal_wrap#6| state) (concat (|vert_formal_wrap#6| state) (concat (|vert_formal_wrap#6| state) (concat (|vert_formal_wrap#6| state) (concat (|vert_formal_wrap#6| state) (|vert_formal_wrap#6| state)))))))))))))))))))))))))))))))))
; yosys-smt2-wire tx_17 32
(define-fun |vert_formal_wrap_n tx_17| ((state |vert_formal_wrap_s|)) (_ BitVec 32) #b00000000000000000000000000000000)
; yosys-smt2-assume 0 $auto$formalff.cc:987:execute$167
(define-fun |vert_formal_wrap_u 0| ((state |vert_formal_wrap_s|)) Bool (or (= ((_ extract 0 0) (|vert_formal_wrap#5| state)) #b1) (not true))) ; $auto$formalff.cc:987:execute$167
; yosys-smt2-assert 0 _witness_.check_assert_vert_formal_wrap_sv_70_11 vert_formal_wrap.sv:70.7-70.109
(define-fun |vert_formal_wrap_a 0| ((state |vert_formal_wrap_s|)) Bool (or true (not (= ((_ extract 0 0) (|vert_formal_wrap#0| state)) #b1)))) ; _witness_.check_assert_vert_formal_wrap_sv_70_11
; yosys-smt2-assert 1 _witness_.check_assert_vert_formal_wrap_sv_71_18 vert_formal_wrap.sv:71.5-71.142
(define-fun |vert_formal_wrap_a 1| ((state |vert_formal_wrap_s|)) Bool (or true (not (= ((_ extract 0 0) (|vert_formal_wrap#0| state)) #b1)))) ; _witness_.check_assert_vert_formal_wrap_sv_71_18
; yosys-smt2-assert 2 _witness_.check_assert_vert_formal_wrap_sv_72_28 vert_formal_wrap.sv:72.5-72.93
(define-fun |vert_formal_wrap_a 2| ((state |vert_formal_wrap_s|)) Bool (or (= ((_ extract 0 0) (|vert_formal_wrap#2| state)) #b1) (not (= ((_ extract 0 0) (|vert_formal_wrap#0| state)) #b1)))) ; _witness_.check_assert_vert_formal_wrap_sv_72_28
; yosys-smt2-assert 3 _witness_.check_assert_vert_formal_wrap_sv_73_35 vert_formal_wrap.sv:73.5-73.123
(define-fun |vert_formal_wrap_a 3| ((state |vert_formal_wrap_s|)) Bool (or true (not (= ((_ extract 0 0) (|vert_formal_wrap#0| state)) #b1)))) ; _witness_.check_assert_vert_formal_wrap_sv_73_35
(define-fun |vert_formal_wrap#7| ((state |vert_formal_wrap_s|)) (_ BitVec 1) (ite (= ((_ extract 0 0) (|vert_formal_wrap#4| state)) #b1) #b1 #b0)) ; $assert$vert_formal_wrap.sv:70$11_EN
; yosys-smt2-assume 1 _witness_.check_assume_vert_formal_wrap_sv_69_9 vert_formal_wrap.sv:69.5-69.18
(define-fun |vert_formal_wrap_u 1| ((state |vert_formal_wrap_s|)) Bool (or true (not (= ((_ extract 0 0) (|vert_formal_wrap#7| state)) #b1)))) ; _witness_.check_assume_vert_formal_wrap_sv_69_9
(define-fun |vert_formal_wrap#8| ((state |vert_formal_wrap_s|)) Bool (not (or  (= ((_ extract 0 0) (|vert_formal_wrap#6| state)) #b1) (= ((_ extract 0 0) (|vert_formal_wrap#6| state)) #b1) (= ((_ extract 0 0) (|vert_formal_wrap#6| state)) #b1) (= ((_ extract 0 0) (|vert_formal_wrap#6| state)) #b1) (= ((_ extract 0 0) (|vert_formal_wrap#6| state)) #b1) (= ((_ extract 0 0) (|vert_formal_wrap#6| state)) #b1) (= ((_ extract 0 0) (|vert_formal_wrap#6| state)) #b1) (= ((_ extract 0 0) (|vert_formal_wrap#6| state)) #b1) (= ((_ extract 0 0) (|vert_formal_wrap#6| state)) #b1) (= ((_ extract 0 0) (|vert_formal_wrap#6| state)) #b1) (= ((_ extract 0 0) (|vert_formal_wrap#6| state)) #b1) (= ((_ extract 0 0) (|vert_formal_wrap#6| state)) #b1) (= ((_ extract 0 0) (|vert_formal_wrap#6| state)) #b1) (= ((_ extract 0 0) (|vert_formal_wrap#6| state)) #b1) (= ((_ extract 0 0) (|vert_formal_wrap#6| state)) #b1) (= ((_ extract 0 0) (|vert_formal_wrap#6| state)) #b1) (= ((_ extract 0 0) (|vert_formal_wrap#6| state)) #b1) (= ((_ extract 0 0) (|vert_formal_wrap#6| state)) #b1) (= ((_ extract 0 0) (|vert_formal_wrap#6| state)) #b1) (= ((_ extract 0 0) (|vert_formal_wrap#6| state)) #b1) (= ((_ extract 0 0) (|vert_formal_wrap#6| state)) #b1) (= ((_ extract 0 0) (|vert_formal_wrap#6| state)) #b1) (= ((_ extract 0 0) (|vert_formal_wrap#6| state)) #b1) (= ((_ extract 0 0) (|vert_formal_wrap#6| state)) #b1) (= ((_ extract 0 0) (|vert_formal_wrap#6| state)) #b1) (= ((_ extract 0 0) (|vert_formal_wrap#6| state)) #b1) (= ((_ extract 0 0) (|vert_formal_wrap#6| state)) #b1) (= ((_ extract 0 0) (|vert_formal_wrap#6| state)) #b1) (= ((_ extract 0 0) (|vert_formal_wrap#6| state)) #b1) (= ((_ extract 0 0) (|vert_formal_wrap#6| state)) #b1) (= ((_ extract 0 0) (|vert_formal_wrap#6| state)) #b1) (= ((_ extract 0 0) (|vert_formal_wrap#6| state)) #b1)))) ; $eq$vert_formal_wrap.sv:72$33_Y
(define-fun |vert_formal_wrap#9| ((state |vert_formal_wrap_s|)) Bool (or  (= ((_ extract 0 0) (|vert_formal_wrap#3| state)) #b1) false  (|vert_formal_wrap#8| state) false)) ; $logic_or$vert_formal_wrap.sv:72$34_Y
(define-fun |vert_formal_wrap_a| ((state |vert_formal_wrap_s|)) Bool (and
  (|vert_formal_wrap_a 0| state)
  (|vert_formal_wrap_a 1| state)
  (|vert_formal_wrap_a 2| state)
  (|vert_formal_wrap_a 3| state)
))
(define-fun |vert_formal_wrap_u| ((state |vert_formal_wrap_s|)) Bool (and
  (|vert_formal_wrap_u 0| state)
  (|vert_formal_wrap_u 1| state)
))
(define-fun |vert_formal_wrap_i| ((state |vert_formal_wrap_s|)) Bool (and
  (= (= ((_ extract 0 0) (|vert_formal_wrap#0| state)) #b1) false) ; $auto$async2sync.cc:107:execute$118
  (= (= ((_ extract 0 0) (|vert_formal_wrap#2| state)) #b1) true) ; $auto$async2sync.cc:116:execute$122
  (= (= ((_ extract 0 0) (|vert_formal_wrap#4| state)) #b1) false) ; _started
  (= (bvand (concat (|vert_formal_wrap#6| state) (concat (|vert_formal_wrap#6| state) (concat (|vert_formal_wrap#6| state) (concat (|vert_formal_wrap#6| state) (concat (|vert_formal_wrap#6| state) (concat (|vert_formal_wrap#6| state) (concat (|vert_formal_wrap#6| state) (concat (|vert_formal_wrap#6| state) (concat (|vert_formal_wrap#6| state) (concat (|vert_formal_wrap#6| state) (concat (|vert_formal_wrap#6| state) (concat (|vert_formal_wrap#6| state) (concat (|vert_formal_wrap#6| state) (concat (|vert_formal_wrap#6| state) (concat (|vert_formal_wrap#6| state) (concat (|vert_formal_wrap#6| state) (concat (|vert_formal_wrap#6| state) (concat (|vert_formal_wrap#6| state) (concat (|vert_formal_wrap#6| state) (concat (|vert_formal_wrap#6| state) (concat (|vert_formal_wrap#6| state) (concat (|vert_formal_wrap#6| state) (concat (|vert_formal_wrap#6| state) (concat (|vert_formal_wrap#6| state) (concat (|vert_formal_wrap#6| state) (concat (|vert_formal_wrap#6| state) (concat (|vert_formal_wrap#6| state) (concat (|vert_formal_wrap#6| state) (concat (|vert_formal_wrap#6| state) (concat (|vert_formal_wrap#6| state) (concat (|vert_formal_wrap#6| state) (|vert_formal_wrap#6| state)))))))))))))))))))))))))))))))) #b00000000000000000000000000000001) #b00000000000000000000000000000000) ; sig_5
))
(define-fun |vert_formal_wrap_h| ((state |vert_formal_wrap_s|)) Bool true)
(define-fun |vert_formal_wrap_t| ((state |vert_formal_wrap_s|) (next_state |vert_formal_wrap_s|)) Bool (and
  (= (|vert_formal_wrap#1| state) (|vert_formal_wrap#6| next_state)) ; $procdff$104 \sig_5 [0]
  (= #b1 (|vert_formal_wrap#4| next_state)) ; $procdff$105 \_started
  (= (ite (|vert_formal_wrap#9| state) #b1 #b0) (|vert_formal_wrap#2| next_state)) ; $auto$async2sync.cc:118:execute$123 $auto$async2sync.cc:116:execute$122
  (= (|vert_formal_wrap#7| state) (|vert_formal_wrap#0| next_state)) ; $auto$async2sync.cc:110:execute$120 $auto$async2sync.cc:107:execute$118
)) ; end of module vert_formal_wrap
; yosys-smt2-topmod vert_formal_wrap
; end of yosys output
